p edge 81 230
e 1 5
e 1 6
e 1 21
e 1 31
e 1 36
e 1 40
e 1 45
e 1 46
e 1 48
e 1 67
e 1 78
e 2 5
e 2 9
e 2 19
e 2 23
e 2 24
e 2 32
e 2 35
e 2 50
e 2 52
e 2 55
e 2 62
e 3 4
e 3 7
e 3 9
e 3 16
e 3 22
e 3 27
e 3 44
e 4 5
e 4 6
e 4 10
e 4 13
e 4 14
e 4 17
e 4 21
e 4 22
e 4 25
e 4 57
e 4 63
e 4 70
e 5 10
e 5 15
e 5 22
e 5 42
e 5 45
e 5 46
e 5 63
e 6 13
e 6 14
e 6 21
e 6 22
e 6 24
e 6 28
e 6 45
e 6 63
e 6 70
e 7 9
e 7 16
e 7 20
e 7 49
e 7 66
e 7 80
e 8 10
e 8 12
e 8 15
e 8 17
e 8 35
e 8 37
e 8 47
e 9 23
e 9 32
e 9 44
e 9 50
e 9 51
e 9 62
e 10 15
e 10 42
e 11 16
e 11 30
e 11 74
e 12 14
e 12 15
e 12 27
e 12 28
e 12 34
e 12 35
e 12 37
e 12 42
e 12 43
e 12 54
e 13 14
e 13 17
e 13 21
e 13 22
e 13 25
e 13 27
e 13 33
e 13 34
e 13 36
e 13 46
e 13 63
e 13 70
e 14 15
e 14 21
e 14 22
e 14 23
e 14 27
e 14 35
e 14 36
e 14 37
e 14 43
e 14 63
e 14 70
e 15 19
e 15 27
e 15 35
e 15 37
e 15 42
e 15 62
e 15 69
e 16 30
e 17 18
e 17 21
e 17 25
e 17 71
e 18 30
e 18 31
e 18 40
e 18 41
e 18 71
e 19 22
e 19 24
e 19 33
e 19 52
e 19 59
e 19 62
e 20 25
e 20 44
e 20 49
e 20 53
e 20 55
e 20 66
e 21 22
e 21 27
e 21 33
e 21 34
e 21 36
e 21 63
e 21 67
e 21 70
e 22 33
e 22 59
e 22 63
e 22 70
e 23 32
e 23 39
e 23 59
e 24 26
e 24 28
e 24 45
e 24 52
e 24 55
e 24 58
e 24 78
e 25 29
e 26 45
e 26 46
e 26 65
e 27 35
e 27 36
e 27 37
e 27 43
e 27 44
e 27 53
e 28 52
e 28 77
e 29 43
e 29 72
e 31 32
e 31 36
e 31 40
e 31 41
e 31 48
e 31 67
e 32 41
e 32 53
e 33 34
e 33 59
e 34 54
e 34 68
e 35 37
e 35 69
e 36 48
e 36 67
e 38 50
e 38 60
e 38 61
e 39 41
e 40 41
e 40 64
e 42 43
e 45 46
e 47 58
e 47 68
e 48 67
e 49 55
e 50 60
e 50 61
e 51 65
e 51 76
e 52 77
e 53 66
e 53 69
e 53 81
e 54 68
e 55 75
e 56 71
e 57 64
e 57 79
e 58 68
e 58 78
e 60 61
e 60 73
e 61 73
e 63 70
e 64 79
e 65 76
e 66 69
e 75 76
